************************************************************************
file with basedata            : j60_34.bas
initial value random generator: 1353813058
************************************************************************
projects                      :  1
jobs (incl. supersource/sink ):  62
horizon                       :  333
RESOURCES
  - renewable                 :  4   R
  - nonrenewable              :  0   N
  - doubly constrained        :  0   D
************************************************************************
PROJECT INFORMATION:
pronr.  #jobs rel.date duedate tardcost  MPM-Time
    1     60      0       78       52       78
************************************************************************
PRECEDENCE RELATIONS:
jobnr.    #modes  #successors   successors
   1        1          3           2   3   4
   2        1          3           6   7  11
   3        1          3           5  19  37
   4        1          3           8  12  13
   5        1          3           9  10  17
   6        1          3          18  38  42
   7        1          2          10  26
   8        1          2          32  39
   9        1          2          15  53
  10        1          3          23  29  45
  11        1          2          24  44
  12        1          3          19  23  52
  13        1          1          14
  14        1          2          18  40
  15        1          3          16  23  31
  16        1          3          20  34  56
  17        1          3          20  25  42
  18        1          3          27  30  35
  19        1          2          21  43
  20        1          2          22  50
  21        1          1          24
  22        1          1          39
  23        1          2          38  50
  24        1          2          42  54
  25        1          3          28  33  45
  26        1          2          41  45
  27        1          2          37  41
  28        1          1          43
  29        1          1          43
  30        1          1          34
  31        1          2          32  44
  32        1          1          49
  33        1          1          48
  34        1          3          36  46  55
  35        1          2          53  59
  36        1          1          60
  37        1          2          54  55
  38        1          1          57
  39        1          3          44  46  49
  40        1          3          41  48  51
  41        1          2          56  58
  42        1          1          46
  43        1          1          56
  44        1          1          47
  45        1          1          50
  46        1          2          51  57
  47        1          3          51  52  57
  48        1          1          52
  49        1          1          58
  50        1          1          61
  51        1          1          58
  52        1          2          54  55
  53        1          1          61
  54        1          1          61
  55        1          1          60
  56        1          1          59
  57        1          1          60
  58        1          1          59
  59        1          1          62
  60        1          1          62
  61        1          1          62
  62        1          0        
************************************************************************
REQUESTS/DURATIONS:
jobnr. mode duration  R 1  R 2  R 3  R 4
------------------------------------------------------------------------
  1      1     0       0    0    0    0
  2      1     4       0    8    0    0
  3      1     8       5    0    0    0
  4      1     1       0    6    0    0
  5      1     7       0    0    0    9
  6      1     6       0    0    2    0
  7      1     1       8    0    0    0
  8      1    10       0    0    8    0
  9      1     9       3    0    0    0
 10      1     3       9    0    0    0
 11      1     8       1    0    0    0
 12      1     1       0    0    7    0
 13      1    10       0    0    3    0
 14      1    10       0    0    0    7
 15      1     5       0    0    0    3
 16      1     5       8    0    0    0
 17      1     1       5    0    0    0
 18      1     1       0    4    0    0
 19      1     7       6    0    0    0
 20      1     8       0    4    0    0
 21      1     5       0    1    0    0
 22      1     2       0    0    6    0
 23      1     7       0    0    4    0
 24      1     7       0    0    0   10
 25      1     2       0    5    0    0
 26      1     2      10    0    0    0
 27      1     4       0    0   10    0
 28      1     5       0    0    6    0
 29      1    10       1    0    0    0
 30      1     7       1    0    0    0
 31      1     5       0    0    5    0
 32      1     9       1    0    0    0
 33      1     1       0   10    0    0
 34      1     2       5    0    0    0
 35      1     6       0    0    0    6
 36      1     6       7    0    0    0
 37      1     2       0    0    3    0
 38      1     8       0    0    7    0
 39      1     6       9    0    0    0
 40      1     7       0    3    0    0
 41      1     8       0    0    0   10
 42      1    10       0    0    8    0
 43      1     9       4    0    0    0
 44      1     9       0    0    0    4
 45      1     5       0    0    0    6
 46      1    10       3    0    0    0
 47      1     2       1    0    0    0
 48      1     8       0    0    8    0
 49      1     6       0    8    0    0
 50      1     2       0    6    0    0
 51      1     6       2    0    0    0
 52      1     3       0    0    0    5
 53      1     4       0    0    9    0
 54      1     1       0    0    8    0
 55      1     6       0    3    0    0
 56      1     8       5    0    0    0
 57      1    10       0   10    0    0
 58      1     3       0    0    0    7
 59      1     1       0    5    0    0
 60      1     7       0    0    3    0
 61      1     7       2    0    0    0
 62      1     0       0    0    0    0
************************************************************************
RESOURCEAVAILABILITIES:
  R 1  R 2  R 3  R 4
   14   13   22   17
************************************************************************
Job	#risk	Type	VL	mu	sigma	Type	VL	mu	sigma
4	2	3	0.1	3.75	0.375	4	0.1	5	0.5
6	2	1	0.1	1.25	0.125	2	0.05	2.5	0.125
9	1	7	0.1	8.75	0.875
14	1	8	0.05	10	0.5
18	1	3	0.2	3.75	0.75
20	1	3	0.1	3.75	0.375
21	1	2	0.2	2.5	0.5
23	1	8	0.05	10	0.5
30	2	5	0.1	6.25	0.625	7	0.05	8.75	0.4375
31	1	3	0.1	3.75	0.375
34	2	1	0.1	1.25	0.125	6	0.2	7.5	1.5
36	1	6	0.2	7.5	1.5
38	2	5	0.1	6.25	0.625	7	0.2	8.75	1.75
40	2	3	0.1	3.75	0.375	8	0.2	10	2
44	2	1	0.1	1.25	0.125	2	0.05	2.5	0.125
45	1	3	0.2	3.75	0.75
46	1	8	0.2	10	2
55	2	7	0.1	8.75	0.875	8	0.2	10	2
